$comment
job3 - cvs-adc(2)-x calculation with mom to prevent collapse to ground state
$end

$molecule
1 2
 C    -0.69934   2.34967   0.00000
 F     0.60215   2.34967  -0.00000
 F    -1.13316   3.29245   0.78541
 F    -1.13317   1.19810   0.42375
 F    -1.13317   2.55847  -1.20916
$end

$rem
mem_total 3000
mem_static 1500
sym_ignore true
method cvs-adc(1)
basis 6-31G*
ee_singlets 30 
cc_rest_occ 5                  !only excitations from the 5th orbital (C 1s)
unrestricted  true
ADC_CVS true
max_scf_cycles 200
$end

