$comment
job3 - cvs-adc(2)-x calculation with mom to prevent collapse to ground state
$end

$molecule
1 2
C    -0.69934   2.34967   0.00000
F     0.60215   2.34967  -0.00000
F    -1.13316   3.29245   0.78541
F    -1.13317   1.19810   0.42375
F    -1.13317   2.55847  -1.20916
$end

$rem
jobtype                     sp
method                      cvs-adc(1)
ee_singlets                 10
adc_davidson_maxsubspace    60
mem_total                   10000
mem_static                  1000
Threads                     4
cc_symmetry                 false
basis                       6-31G*
ADC_Davidson_thresh         8
Symmetry                    false
ADC_DAVIDSON_MAXITER        900
ADC_CVS                     true
cc_rest_occ                 5		! first 5 orbitals (C 1s is 5th)
$end

