%mem=5000MB
%Nprocshared=6
%chk=gwp16_V1_dd_data.chk
#P UHF/6-31g* IOP(7/33=1) IOP(7/8=11)
Freq

Distorted Ethanol

1 2
6                  0.942658       4.740591      -1.504429
9                  1.881958       5.405959      -1.082837
9                  0.380359       4.019145      -0.616981
9                 -5.874367      -6.535747       4.661179
9                  0.246104       5.289510      -2.321771

