%mem=5000MB
%Nprocshared=6
%chk=gwp2_V1_dd_data.chk
#P UHF/6-31g* IOP(7/33=1) IOP(7/8=11)
Freq

Distorted Ethanol

1 2
6                 -0.695515       6.209673      -0.631439
9                 -1.117222       5.757404       0.503345
9                  0.506281       6.221790      -0.831169
9                 -0.917974     -10.689422       2.551303
9                 -1.234136       5.817945      -1.641715

