%mem=5000MB
%Nprocshared=6
%chk=gwp6_V1_dd_data.chk
#P UHF/6-31g* IOP(7/33=1) IOP(7/8=11)
Freq

Distorted Ethanol

1 2
6                 -0.493047       5.515892      -0.688155
9                 -0.099032       4.403219      -0.006114
9                  0.181982       6.472491      -0.479632
9                 -2.248042      -8.651780       2.870034
9                 -0.841246       5.268284      -1.845898

