%mem=5000MB
%Nprocshared=6
%chk=gwp7_V1_dd_data.chk
#P UHF/6-31g* IOP(7/33=1) IOP(7/8=11)
Freq

Distorted Ethanol

1 2
6                  0.859743       4.622316      -1.292495
9                  1.851630       5.341939      -1.094331
9                  0.147417       4.306564      -0.234833
9                 -6.164540      -6.702022       4.814721
9                  0.174493       4.991539      -2.275731

