%mem=5000MB
%Nprocshared=1
%chk=gwp1_V1_dd_data.chk
#P UHF/6-31g* IOP(7/33=1) IOP(7/8=11)
Freq

CF4+

1 2
6                 -0.008706       4.257884      -0.758127
9                  1.071301       3.735242      -0.577358
9                 -0.635004       4.674304       0.193740
9                 -3.129870      -4.392459       2.696299
9                 -0.540005       4.176317      -1.833825

