%chk=cf4.chk
%mem=1000MB
%NProcShared=8
#P UHF/6-31G* pop=full gfinput 


1 2
  6    -0.69934   2.34967   0.00000
  9     0.60215   2.34967  -0.00000
  9    -1.13316   3.29245   0.78541
  9    -1.13317   1.19810   0.42375
  9    -1.13317   2.55847  -1.20916

