%chk=cf4.chk
%mem=1000MB
%NProcShared=8
# HF/6-31G* Opt


0 1
C         -0.69934        2.34968        0.00000
F          0.37066        2.34968        0.00000
F         -1.05600        3.12476        0.64571
F         -1.05601        1.40294        0.34838
F         -1.05601        2.52133       -0.99409

